c description: Random 4-CNF over 7 variables and 4 clauses
c generator: CNFgen (0.9.2)
c copyright: (C) 2012-2022 Massimo Lauria <massimo.lauria@uniroma1.it>
c url: https://massimolauria.net/cnfgen
c command line: cnfgen randkcnf 4 7 4
c
p cnf 7 4
1 2 5 -6 0
3 5 -6 7 0
1 5 6 -7 0
-1 2 3 6 0
